(set-info :smt-lib-version 2.6)
(set-logic QF_LIA)
(set-info :source |
Generated by: Nicolas Amat, Bernard Berthomieu, Silvano Dal Zilio, Didier Le Botlan
Generated on: 2022-03-07
Generator: SMPT
Application: Reachability query on the instance Eratosthenes-PT-100 from the Model Checking Contest 2021 using the SMPT model-checker
Target solver: z3
Publications: https://doi.org/10.1007/978-3-030-76983-3_9, http://mcc.lip6.fr/2021/results.php
|)
(set-info :license "https://creativecommons.org/licenses/by/4.0/")
(set-info :category "industrial")
(set-info :status sat)

(declare-const p10 Int)
(assert (>= p10 0))
(declare-const p2 Int)
(assert (>= p2 0))
(declare-const p5 Int)
(assert (>= p5 0))
(declare-const p100 Int)
(assert (>= p100 0))
(declare-const p20 Int)
(assert (>= p20 0))
(declare-const p25 Int)
(assert (>= p25 0))
(declare-const p4 Int)
(assert (>= p4 0))
(declare-const p50 Int)
(assert (>= p50 0))
(declare-const p12 Int)
(assert (>= p12 0))
(declare-const p3 Int)
(assert (>= p3 0))
(declare-const p6 Int)
(assert (>= p6 0))
(declare-const p14 Int)
(assert (>= p14 0))
(declare-const p7 Int)
(assert (>= p7 0))
(declare-const p15 Int)
(assert (>= p15 0))
(declare-const p16 Int)
(assert (>= p16 0))
(declare-const p8 Int)
(assert (>= p8 0))
(declare-const p18 Int)
(assert (>= p18 0))
(declare-const p9 Int)
(assert (>= p9 0))
(declare-const p21 Int)
(assert (>= p21 0))
(declare-const p11 Int)
(assert (>= p11 0))
(declare-const p22 Int)
(assert (>= p22 0))
(declare-const p24 Int)
(assert (>= p24 0))
(declare-const p13 Int)
(assert (>= p13 0))
(declare-const p26 Int)
(assert (>= p26 0))
(declare-const p27 Int)
(assert (>= p27 0))
(declare-const p28 Int)
(assert (>= p28 0))
(declare-const p30 Int)
(assert (>= p30 0))
(declare-const p32 Int)
(assert (>= p32 0))
(declare-const p33 Int)
(assert (>= p33 0))
(declare-const p17 Int)
(assert (>= p17 0))
(declare-const p34 Int)
(assert (>= p34 0))
(declare-const p35 Int)
(assert (>= p35 0))
(declare-const p36 Int)
(assert (>= p36 0))
(declare-const p19 Int)
(assert (>= p19 0))
(declare-const p38 Int)
(assert (>= p38 0))
(declare-const p39 Int)
(assert (>= p39 0))
(declare-const p40 Int)
(assert (>= p40 0))
(declare-const p42 Int)
(assert (>= p42 0))
(declare-const p44 Int)
(assert (>= p44 0))
(declare-const p45 Int)
(assert (>= p45 0))
(declare-const p46 Int)
(assert (>= p46 0))
(declare-const p23 Int)
(assert (>= p23 0))
(declare-const p48 Int)
(assert (>= p48 0))
(declare-const p49 Int)
(assert (>= p49 0))
(declare-const p51 Int)
(assert (>= p51 0))
(declare-const p52 Int)
(assert (>= p52 0))
(declare-const p54 Int)
(assert (>= p54 0))
(declare-const p55 Int)
(assert (>= p55 0))
(declare-const p56 Int)
(assert (>= p56 0))
(declare-const p57 Int)
(assert (>= p57 0))
(declare-const p58 Int)
(assert (>= p58 0))
(declare-const p29 Int)
(assert (>= p29 0))
(declare-const p60 Int)
(assert (>= p60 0))
(declare-const p62 Int)
(assert (>= p62 0))
(declare-const p31 Int)
(assert (>= p31 0))
(declare-const p63 Int)
(assert (>= p63 0))
(declare-const p64 Int)
(assert (>= p64 0))
(declare-const p65 Int)
(assert (>= p65 0))
(declare-const p66 Int)
(assert (>= p66 0))
(declare-const p68 Int)
(assert (>= p68 0))
(declare-const p69 Int)
(assert (>= p69 0))
(declare-const p70 Int)
(assert (>= p70 0))
(declare-const p72 Int)
(assert (>= p72 0))
(declare-const p74 Int)
(assert (>= p74 0))
(declare-const p37 Int)
(assert (>= p37 0))
(declare-const p75 Int)
(assert (>= p75 0))
(declare-const p76 Int)
(assert (>= p76 0))
(declare-const p77 Int)
(assert (>= p77 0))
(declare-const p78 Int)
(assert (>= p78 0))
(declare-const p80 Int)
(assert (>= p80 0))
(declare-const p81 Int)
(assert (>= p81 0))
(declare-const p82 Int)
(assert (>= p82 0))
(declare-const p41 Int)
(assert (>= p41 0))
(declare-const p84 Int)
(assert (>= p84 0))
(declare-const p85 Int)
(assert (>= p85 0))
(declare-const p86 Int)
(assert (>= p86 0))
(declare-const p43 Int)
(assert (>= p43 0))
(declare-const p87 Int)
(assert (>= p87 0))
(declare-const p88 Int)
(assert (>= p88 0))
(declare-const p90 Int)
(assert (>= p90 0))
(declare-const p91 Int)
(assert (>= p91 0))
(declare-const p92 Int)
(assert (>= p92 0))
(declare-const p93 Int)
(assert (>= p93 0))
(declare-const p94 Int)
(assert (>= p94 0))
(declare-const p47 Int)
(assert (>= p47 0))
(declare-const p95 Int)
(assert (>= p95 0))
(declare-const p96 Int)
(assert (>= p96 0))
(declare-const p98 Int)
(assert (>= p98 0))
(declare-const p99 Int)
(assert (>= p99 0))
(declare-const p53 Int)
(assert (>= p53 0))
(declare-const p59 Int)
(assert (>= p59 0))
(declare-const p61 Int)
(assert (>= p61 0))
(declare-const p67 Int)
(assert (>= p67 0))
(declare-const p71 Int)
(assert (>= p71 0))
(declare-const p73 Int)
(assert (>= p73 0))
(declare-const p79 Int)
(assert (>= p79 0))
(declare-const p83 Int)
(assert (>= p83 0))
(declare-const p89 Int)
(assert (>= p89 0))
(declare-const p97 Int)
(assert (>= p97 0))


(assert (= p11 1))
(assert (= p13 1))
(assert (= p17 1))
(assert (= p19 1))
(assert (= p2 1))
(assert (= p23 1))
(assert (= p29 1))
(assert (= p3 1))
(assert (= p31 1))
(assert (= p37 1))
(assert (= p41 1))
(assert (= p43 1))
(assert (= p47 1))
(assert (= p5 1))
(assert (= p53 1))
(assert (= p59 1))
(assert (= p61 1))
(assert (= p67 1))
(assert (= p7 1))
(assert (= p71 1))
(assert (= p73 1))
(assert (= p79 1))
(assert (= p83 1))
(assert (= p89 1))
(assert (= p97 1))
(assert (<= p10 1))
(assert (<= p100 1))
(assert (<= p12 1))
(assert (<= p14 1))
(assert (<= p15 1))
(assert (<= p16 1))
(assert (<= p18 1))
(assert (<= p20 1))
(assert (<= p21 1))
(assert (<= p22 1))
(assert (<= p24 1))
(assert (<= p25 1))
(assert (<= p26 1))
(assert (<= p27 1))
(assert (<= p28 1))
(assert (<= p30 1))
(assert (<= p32 1))
(assert (<= p33 1))
(assert (<= p34 1))
(assert (<= p35 1))
(assert (<= p36 1))
(assert (<= p38 1))
(assert (<= p39 1))
(assert (<= p4 1))
(assert (<= p40 1))
(assert (<= p42 1))
(assert (<= p44 1))
(assert (<= p45 1))
(assert (<= p46 1))
(assert (<= p48 1))
(assert (<= p49 1))
(assert (<= p50 1))
(assert (<= p51 1))
(assert (<= p52 1))
(assert (<= p54 1))
(assert (<= p55 1))
(assert (<= p56 1))
(assert (<= p57 1))
(assert (<= p58 1))
(assert (<= p6 1))
(assert (<= p60 1))
(assert (<= p62 1))
(assert (<= p63 1))
(assert (<= p64 1))
(assert (<= p65 1))
(assert (<= p66 1))
(assert (<= p68 1))
(assert (<= p69 1))
(assert (<= p70 1))
(assert (<= p72 1))
(assert (<= p74 1))
(assert (<= p75 1))
(assert (<= p76 1))
(assert (<= p77 1))
(assert (<= p78 1))
(assert (<= p8 1))
(assert (<= p80 1))
(assert (<= p81 1))
(assert (<= p82 1))
(assert (<= p84 1))
(assert (<= p85 1))
(assert (<= p86 1))
(assert (<= p87 1))
(assert (<= p88 1))
(assert (<= p9 1))
(assert (<= p90 1))
(assert (<= p91 1))
(assert (<= p92 1))
(assert (<= p93 1))
(assert (<= p94 1))
(assert (<= p95 1))
(assert (<= p96 1))
(assert (<= p98 1))
(assert (<= p99 1))

(assert (not (or (and (>= p96 1)(>= p2 1))(not (not (or (and (>= p81 1)(>= p27 1))(and (>= p20 1)(>= p4 1))))))))

(check-sat)
(exit)
